60 37 86 38 57 95 50 
75 76 51 66 26 
24 88 2 74 100 
27 54 53 77 
42 94 49 80 
7 69 30 18 61 13 96 
92 98 16 44 87 56 29 12 
1 33 34 71 20 10 52 83 
28 31 32 63 19 47 89 59 97 
45 99 84 43 14 91 
82 90 9 55 25 
36 64 48 17 58 
39 23 22 68 3 81 
5 15 40 70 
85 46 6 72 4 21 73 
62 11 93 
65 79 35 
78 
41 
8 
67 

